####################################################################### 
# 
# This file contains crystal structure data downloaded from the 
# Cambridge Structural Database (CSD) hosted by the Cambridge 
# Crystallographic Data Centre (CCDC).
# 
# Full information about CCDC data access policies and citation 
# guidelines are available at http://www.ccdc.cam.ac.uk/access/V1 
# 
# Audit and citation data items may have been added by the CCDC. 
# Please retain this information to preserve the provenance of 
# this file and to allow appropriate attribution of the data. 
# 
#######################################################################

data_a
_audit_block_doi                 10.5517/ccdc.csd.cc1n5jcq
_database_code_depnum_ccdc_archive 'CCDC 1524653'
loop_
_citation_id
_citation_doi
_citation_year
1 10.11862/CJIC.2017.110 2017
2 10.1021/acsami.2c09290 2022
_audit_update_record             
;
2016-12-27 deposited with the CCDC.	2023-03-30 downloaded from the CCDC.
;

_audit_creation_method           SHELXL-97
_chemical_name_systematic        
; 
 ? 
;
_chemical_name_common            ?
_chemical_melting_point          ?
_chemical_formula_moiety         'C5 H7 Cu N8 O3'
_chemical_formula_sum            'C5 H7 Cu N8 O3'
_chemical_formula_weight         290.73

loop_
_atom_type_symbol
_atom_type_description
_atom_type_scat_dispersion_real
_atom_type_scat_dispersion_imag
_atom_type_scat_source
C C 0.0033 0.0016 'International Tables Vol C Tables 4.2.6.8 and 6.1.1.4'
H H 0.0000 0.0000 'International Tables Vol C Tables 4.2.6.8 and 6.1.1.4'
N N 0.0061 0.0033 'International Tables Vol C Tables 4.2.6.8 and 6.1.1.4'
O O 0.0106 0.0060 'International Tables Vol C Tables 4.2.6.8 and 6.1.1.4'
Cu Cu 0.3201 1.2651 'International Tables Vol C Tables 4.2.6.8 and 6.1.1.4'

_symmetry_cell_setting           Orthorhombic
_symmetry_space_group_name_H-M   'Pbcn '
_symmetry_space_group_name_Hall  '-P 2n 2ab '

loop_
_symmetry_equiv_pos_as_xyz
'x, y, z'
'-x+1/2, -y+1/2, z+1/2'
'-x, y, -z+1/2'
'x+1/2, -y+1/2, -z'
'-x, -y, -z'
'x-1/2, y-1/2, -z-1/2'
'x, -y, z-1/2'
'-x-1/2, y-1/2, z'

_cell_length_a                   15.160(3)
_cell_length_b                   13.671(3)
_cell_length_c                   10.044(2)
_cell_angle_alpha                90.00
_cell_angle_beta                 90.00
_cell_angle_gamma                90.00
_cell_volume                     2081.5(7)
_cell_formula_units_Z            8
_cell_measurement_temperature    293(2)
_cell_measurement_reflns_used    5451
_cell_measurement_theta_min      2.0059
_cell_measurement_theta_max      27.8764

_exptl_crystal_description       Block
_exptl_crystal_colour            Blue
_exptl_crystal_size_max          0.25
_exptl_crystal_size_mid          0.20
_exptl_crystal_size_min          0.20
_exptl_crystal_density_meas      ?
_exptl_crystal_density_diffrn    1.855
_exptl_crystal_density_method    'not measured'
_exptl_crystal_F_000             1168
_exptl_absorpt_coefficient_mu    2.112
_exptl_absorpt_correction_type   Numerical
_exptl_absorpt_correction_T_min  0.6202
_exptl_absorpt_correction_T_max  0.6774
_exptl_absorpt_process_details   'CrystalClear (Rigaku/MSC Inc., 2006)'

_exptl_special_details           
; 
 ? 
;

_diffrn_ambient_temperature      293(2)
_diffrn_radiation_wavelength     0.71073
_diffrn_radiation_type           MoK\a
_diffrn_radiation_source         'fine-focus sealed tube'
_diffrn_radiation_monochromator  graphite
_diffrn_measurement_device_type  Saturn724
_diffrn_measurement_method       dtprofit.ref
_diffrn_detector_area_resol_mean ?
_diffrn_standards_number         ?
_diffrn_standards_interval_count ?
_diffrn_standards_interval_time  ?
_diffrn_standards_decay_%        ?
_diffrn_reflns_number            1935
_diffrn_reflns_av_R_equivalents  0.0000
_diffrn_reflns_av_sigmaI/netI    0.0238
_diffrn_reflns_limit_h_min       0
_diffrn_reflns_limit_h_max       18
_diffrn_reflns_limit_k_min       0
_diffrn_reflns_limit_k_max       16
_diffrn_reflns_limit_l_min       0
_diffrn_reflns_limit_l_max       12
_diffrn_reflns_theta_min         2.01
_diffrn_reflns_theta_max         25.49
_reflns_number_total             1935
_reflns_number_gt                1790
_reflns_threshold_expression     >2sigma(I)

_computing_data_collection       'CrystalClear (Rigaku/MSC Inc., 2006)'
_computing_cell_refinement       'CrystalClear (Rigaku/MSC Inc., 2006)'
_computing_data_reduction        'CrystalClear (Rigaku/MSC Inc., 2006)'
_computing_structure_solution    'SHELXS-97 (Sheldrick, 1990)'
_computing_structure_refinement  'SHELXL-97 (Sheldrick, 1997)'
_computing_molecular_graphics    SHELXTL
_computing_publication_material  SHELXTL

_refine_special_details          
; 
 Refinement of F^2^ against ALL reflections.  The weighted R-factor wR and 
 goodness of fit S are based on F^2^, conventional R-factors R are based 
 on F, with F set to zero for negative F^2^. The threshold expression of 
 F^2^ > 2sigma(F^2^) is used only for calculating R-factors(gt) etc. and is 
 not relevant to the choice of reflections for refinement.  R-factors based 
 on F^2^ are statistically about twice as large as those based on F, and R- 
 factors based on ALL data will be even larger. 
;

_refine_ls_structure_factor_coef Fsqd
_refine_ls_matrix_type           full
_refine_ls_weighting_scheme      calc
_refine_ls_weighting_details     
'calc w=1/[\s^2^(Fo^2^)+(0.0683P)^2^+6.4275P] where P=(Fo^2^+2Fc^2^)/3'
_atom_sites_solution_primary     direct
_atom_sites_solution_secondary   difmap
_atom_sites_solution_hydrogens   geom
_refine_ls_hydrogen_treatment    mixed
_refine_ls_extinction_method     none
_refine_ls_extinction_coef       ?
_refine_ls_number_reflns         1935
_refine_ls_number_parameters     154
_refine_ls_number_restraints     0
_refine_ls_R_factor_all          0.0506
_refine_ls_R_factor_gt           0.0462
_refine_ls_wR_factor_ref         0.1241
_refine_ls_wR_factor_gt          0.1201
_refine_ls_goodness_of_fit_ref   0.993
_refine_ls_restrained_S_all      0.993
_refine_ls_shift/su_max          0.001
_refine_ls_shift/su_mean         0.000

loop_
_atom_site_label
_atom_site_type_symbol
_atom_site_fract_x
_atom_site_fract_y
_atom_site_fract_z
_atom_site_U_iso_or_equiv
_atom_site_adp_type
_atom_site_occupancy
_atom_site_symmetry_multiplicity
_atom_site_calc_flag
_atom_site_refinement_flags
_atom_site_disorder_assembly
_atom_site_disorder_group
Cu1 Cu 0.72174(3) 0.13622(4) 0.02144(5) 0.0239(2) Uani 1 1 d . . .
O1 O 0.6057(2) 0.0647(3) 0.0136(4) 0.0611(11) Uani 1 1 d . . .
O2 O 0.6748(2) 0.2474(3) -0.0947(4) 0.0509(9) Uani 1 1 d . . .
O3 O 0.6228(4) 0.2172(3) 0.2357(5) 0.0914(17) Uani 1 1 d . . .
N1 N 0.8447(2) -0.0679(3) 0.2700(3) 0.0266(7) Uani 1 1 d . . .
N2 N 0.7659(2) -0.0524(3) 0.3300(3) 0.0287(8) Uani 1 1 d . . .
N3 N 0.7208(2) 0.0134(2) 0.2639(3) 0.0272(8) Uani 1 1 d . . .
N4 N 0.76961(19) 0.0432(2) 0.1597(3) 0.0228(7) Uani 1 1 d . . .
N5 N 0.8332(2) 0.2113(2) 0.0486(3) 0.0230(7) Uani 1 1 d . . .
N6 N 0.8306(2) 0.3091(3) 0.0705(4) 0.0322(8) Uani 1 1 d . . .
N7 N 0.9110(2) 0.3396(3) 0.0873(4) 0.0382(9) Uani 1 1 d . . .
N8 N 0.9684(2) 0.2639(3) 0.0768(4) 0.0338(9) Uani 1 1 d . . .
C1 C 1.0329(2) 0.0858(3) -0.0490(4) 0.0212(8) Uani 1 1 d . . .
H1A H 1.0552 0.1443 -0.0822 0.025 Uiso 1 1 calc R . .
C2 C 0.9561(2) 0.0881(3) 0.0280(4) 0.0195(8) Uani 1 1 d . . .
C3 C 0.9226(2) 0.0007(3) 0.0778(4) 0.0197(8) Uani 1 1 d . . .
C4 C 0.8453(2) -0.0070(3) 0.1669(4) 0.0196(8) Uani 1 1 d . . .
C5 C 0.9182(2) 0.1857(3) 0.0532(4) 0.0216(8) Uani 1 1 d . . .

loop_
_atom_site_aniso_label
_atom_site_aniso_U_11
_atom_site_aniso_U_22
_atom_site_aniso_U_33
_atom_site_aniso_U_23
_atom_site_aniso_U_13
_atom_site_aniso_U_12
Cu1 0.0180(3) 0.0228(3) 0.0310(3) 0.0042(2) -0.00214(18) 0.00020(18)
O1 0.0336(19) 0.055(2) 0.095(3) 0.012(2) -0.0056(19) -0.0057(18)
O2 0.044(2) 0.053(2) 0.056(2) 0.0119(18) 0.0001(17) 0.0110(17)
O3 0.155(5) 0.058(3) 0.061(3) -0.003(2) -0.026(3) 0.014(3)
N1 0.0205(15) 0.0324(19) 0.0267(17) 0.0068(14) 0.0034(13) 0.0016(14)
N2 0.0253(17) 0.033(2) 0.0281(18) 0.0073(15) 0.0048(14) 0.0011(15)
N3 0.0224(17) 0.0302(19) 0.0290(18) 0.0044(15) 0.0065(13) 0.0018(14)
N4 0.0204(16) 0.0245(17) 0.0236(17) 0.0043(14) 0.0052(12) 0.0017(13)
N5 0.0205(15) 0.0172(16) 0.0314(17) -0.0009(13) 0.0005(13) 0.0022(13)
N6 0.0304(19) 0.0210(18) 0.045(2) -0.0004(15) 0.0039(16) 0.0011(15)
N7 0.031(2) 0.0241(19) 0.060(3) -0.0041(18) 0.0033(18) -0.0022(15)
N8 0.0224(17) 0.0227(18) 0.056(2) -0.0063(17) 0.0055(16) -0.0056(14)
C1 0.0198(18) 0.0181(19) 0.0256(19) 0.0016(15) 0.0018(15) -0.0014(15)
C2 0.0142(16) 0.0213(19) 0.0231(18) 0.0004(15) -0.0015(14) 0.0024(14)
C3 0.0170(17) 0.0234(19) 0.0186(18) 0.0003(15) -0.0007(14) -0.0018(15)
C4 0.0207(18) 0.0163(18) 0.0218(19) 0.0008(14) 0.0032(15) 0.0004(15)
C5 0.0192(18) 0.020(2) 0.0255(19) 0.0011(15) 0.0016(15) -0.0028(15)

_geom_special_details            
; 
 All esds (except the esd in the dihedral angle between two l.s. planes) 
 are estimated using the full covariance matrix.  The cell esds are taken 
 into account individually in the estimation of esds in distances, angles 
 and torsion angles; correlations between esds in cell parameters are only 
 used when they are defined by crystal symmetry.  An approximate (isotropic) 
 treatment of cell esds is used for estimating esds involving l.s. planes. 
;

loop_
_geom_bond_atom_site_label_1
_geom_bond_atom_site_label_2
_geom_bond_distance
_geom_bond_site_symmetry_2
_geom_bond_publ_flag
Cu1 N5 1.995(3) . ?
Cu1 N4 2.018(3) . ?
Cu1 O1 2.014(4) . ?
Cu1 O2 2.044(3) . ?
Cu1 N2 2.336(3) 7 ?
N1 C4 1.328(5) . ?
N1 N2 1.355(4) . ?
N2 N3 1.310(5) . ?
N2 Cu1 2.336(3) 7_556 ?
N3 N4 1.345(4) . ?
N4 C4 1.339(5) . ?
N5 C5 1.336(5) . ?
N5 N6 1.355(5) . ?
N6 N7 1.300(5) . ?
N7 N8 1.356(5) . ?
N8 C5 1.333(5) . ?
C1 C3 1.392(5) 5_755 ?
C1 C2 1.399(5) . ?
C1 H1A 0.9300 . ?
C2 C3 1.391(5) . ?
C2 C5 1.475(5) . ?
C3 C1 1.392(5) 5_755 ?
C3 C4 1.477(5) . ?

loop_
_geom_angle_atom_site_label_1
_geom_angle_atom_site_label_2
_geom_angle_atom_site_label_3
_geom_angle
_geom_angle_site_symmetry_1
_geom_angle_site_symmetry_3
_geom_angle_publ_flag
N5 Cu1 N4 85.75(13) . . ?
N5 Cu1 O1 173.96(16) . . ?
N4 Cu1 O1 91.97(15) . . ?
N5 Cu1 O2 89.45(14) . . ?
N4 Cu1 O2 170.62(15) . . ?
O1 Cu1 O2 92.00(15) . . ?
N5 Cu1 N2 97.01(12) . 7 ?
N4 Cu1 N2 98.85(13) . 7 ?
O1 Cu1 N2 88.86(15) . 7 ?
O2 Cu1 N2 89.72(14) . 7 ?
C4 N1 N2 104.8(3) . . ?
N3 N2 N1 110.0(3) . . ?
N3 N2 Cu1 127.1(2) . 7_556 ?
N1 N2 Cu1 122.9(2) . 7_556 ?
N2 N3 N4 108.3(3) . . ?
C4 N4 N3 105.9(3) . . ?
C4 N4 Cu1 131.9(2) . . ?
N3 N4 Cu1 121.9(2) . . ?
C5 N5 N6 106.3(3) . . ?
C5 N5 Cu1 133.4(3) . . ?
N6 N5 Cu1 120.3(2) . . ?
N7 N6 N5 108.1(3) . . ?
N6 N7 N8 110.3(3) . . ?
C5 N8 N7 105.0(3) . . ?
C3 C1 C2 122.5(4) 5_755 . ?
C3 C1 H1A 118.7 5_755 . ?
C2 C1 H1A 118.7 . . ?
C3 C2 C1 118.9(3) . . ?
C3 C2 C5 124.9(3) . . ?
C1 C2 C5 116.1(3) . . ?
C1 C3 C2 118.5(3) 5_755 . ?
C1 C3 C4 116.7(3) 5_755 . ?
C2 C3 C4 124.7(3) . . ?
N1 C4 N4 110.9(3) . . ?
N1 C4 C3 121.5(3) . . ?
N4 C4 C3 127.6(3) . . ?
N5 C5 N8 110.3(3) . . ?
N5 C5 C2 127.4(3) . . ?
N8 C5 C2 122.2(3) . . ?

loop_
_geom_torsion_atom_site_label_1
_geom_torsion_atom_site_label_2
_geom_torsion_atom_site_label_3
_geom_torsion_atom_site_label_4
_geom_torsion
_geom_torsion_site_symmetry_1
_geom_torsion_site_symmetry_2
_geom_torsion_site_symmetry_3
_geom_torsion_site_symmetry_4
_geom_torsion_publ_flag
C4 N1 N2 N3 1.2(4) . . . . ?
C4 N1 N2 Cu1 -179.6(2) . . . 7_556 ?
N1 N2 N3 N4 -0.6(4) . . . . ?
Cu1 N2 N3 N4 -179.7(2) 7_556 . . . ?
N2 N3 N4 C4 -0.3(4) . . . . ?
N2 N3 N4 Cu1 174.8(3) . . . . ?
N5 Cu1 N4 C4 -55.5(4) . . . . ?
O1 Cu1 N4 C4 130.1(4) . . . . ?
O2 Cu1 N4 C4 -114.9(8) . . . . ?
N2 Cu1 N4 C4 40.9(4) 7 . . . ?
N5 Cu1 N4 N3 130.9(3) . . . . ?
O1 Cu1 N4 N3 -43.5(3) . . . . ?
O2 Cu1 N4 N3 71.5(9) . . . . ?
N2 Cu1 N4 N3 -132.7(3) 7 . . . ?
N4 Cu1 N5 C5 48.0(4) . . . . ?
O1 Cu1 N5 C5 116.1(14) . . . . ?
O2 Cu1 N5 C5 -140.0(4) . . . . ?
N2 Cu1 N5 C5 -50.4(4) 7 . . . ?
N4 Cu1 N5 N6 -130.4(3) . . . . ?
O1 Cu1 N5 N6 -62.4(15) . . . . ?
O2 Cu1 N5 N6 41.5(3) . . . . ?
N2 Cu1 N5 N6 131.2(3) 7 . . . ?
C5 N5 N6 N7 0.0(5) . . . . ?
Cu1 N5 N6 N7 178.8(3) . . . . ?
N5 N6 N7 N8 0.1(5) . . . . ?
N6 N7 N8 C5 -0.2(5) . . . . ?
C3 C1 C2 C3 0.0(6) 5_755 . . . ?
C3 C1 C2 C5 178.2(3) 5_755 . . . ?
C1 C2 C3 C1 0.0(6) . . . 5_755 ?
C5 C2 C3 C1 -178.1(3) . . . 5_755 ?
C1 C2 C3 C4 176.2(3) . . . . ?
C5 C2 C3 C4 -1.9(6) . . . . ?
N2 N1 C4 N4 -1.4(4) . . . . ?
N2 N1 C4 C3 177.8(3) . . . . ?
N3 N4 C4 N1 1.1(4) . . . . ?
Cu1 N4 C4 N1 -173.3(3) . . . . ?
N3 N4 C4 C3 -178.1(4) . . . . ?
Cu1 N4 C4 C3 7.5(6) . . . . ?
C1 C3 C4 N1 37.9(5) 5_755 . . . ?
C2 C3 C4 N1 -138.3(4) . . . . ?
C1 C3 C4 N4 -143.0(4) 5_755 . . . ?
C2 C3 C4 N4 40.8(6) . . . . ?
N6 N5 C5 N8 -0.1(5) . . . . ?
Cu1 N5 C5 N8 -178.7(3) . . . . ?
N6 N5 C5 C2 -176.3(4) . . . . ?
Cu1 N5 C5 C2 5.1(6) . . . . ?
N7 N8 C5 N5 0.2(5) . . . . ?
N7 N8 C5 C2 176.6(4) . . . . ?
C3 C2 C5 N5 -44.7(6) . . . . ?
C1 C2 C5 N5 137.2(4) . . . . ?
C3 C2 C5 N8 139.5(4) . . . . ?
C1 C2 C5 N8 -38.6(5) . . . . ?

_diffrn_measured_fraction_theta_max 0.995
_diffrn_reflns_theta_full        25.49
_diffrn_measured_fraction_theta_full 0.995
_refine_diff_density_max         0.587
_refine_diff_density_min         -0.441
_refine_diff_density_rms         0.087
