####################################################################### 
# 
# This file contains crystal structure data downloaded from the 
# Cambridge Structural Database (CSD) hosted by the Cambridge 
# Crystallographic Data Centre (CCDC).
# 
# Full information about CCDC data access policies and citation 
# guidelines are available at http://www.ccdc.cam.ac.uk/access/V1 
# 
# Audit and citation data items may have been added by the CCDC. 
# Please retain this information to preserve the provenance of 
# this file and to allow appropriate attribution of the data. 
# 
#######################################################################

data_Compound1
_audit_block_doi                 10.5517/cc100tc6
_database_code_depnum_ccdc_archive 'CCDC 924307'
loop_
_citation_id
_citation_doi
_citation_year
1 10.1002/anie.201308606 2014
_audit_update_record             
;
2013-02-13 deposited with the CCDC.	2023-04-06 downloaded from the CCDC.
;
#TrackingRef 'InHyeokPark.cif'


# SQUEEZED data _jj1

_audit_creation_method           SHELXL-97
_chemical_name_systematic        
;
?
;
_chemical_name_common            ?
_chemical_melting_point          ?
_chemical_formula_moiety         ?
_chemical_formula_sum            'C28 H20 N2 O4 Zn'
_chemical_formula_weight         513.83

loop_
_atom_type_symbol
_atom_type_description
_atom_type_scat_dispersion_real
_atom_type_scat_dispersion_imag
_atom_type_scat_source
C C 0.0033 0.0016 'International Tables Vol C Tables 4.2.6.8 and 6.1.1.4'
H H 0.0000 0.0000 'International Tables Vol C Tables 4.2.6.8 and 6.1.1.4'
N N 0.0061 0.0033 'International Tables Vol C Tables 4.2.6.8 and 6.1.1.4'
O O 0.0106 0.0060 'International Tables Vol C Tables 4.2.6.8 and 6.1.1.4'
Zn Zn 0.2839 1.4301 'International Tables Vol C Tables 4.2.6.8 and 6.1.1.4'

_symmetry_cell_setting           Monoclinic
_symmetry_space_group_name_H-M   P2/n

loop_
_symmetry_equiv_pos_as_xyz
'x, y, z'
'-x+1/2, y, -z+1/2'
'-x, -y, -z'
'x-1/2, -y, z-1/2'

_cell_length_a                   13.9159(4)
_cell_length_b                   7.6229(2)
_cell_length_c                   14.2827(4)
_cell_angle_alpha                90.00
_cell_angle_beta                 99.271(2)
_cell_angle_gamma                90.00
_cell_volume                     1495.31(7)
_cell_formula_units_Z            2
_cell_measurement_temperature    173(2)
_cell_measurement_reflns_used    4207
_cell_measurement_theta_min      2.23
_cell_measurement_theta_max      20.99

_exptl_crystal_description       block
_exptl_crystal_colour            yellow
_exptl_crystal_size_max          0.21
_exptl_crystal_size_mid          0.15
_exptl_crystal_size_min          0.14
_exptl_crystal_density_meas      'not measured'
_exptl_crystal_density_diffrn    1.141
_exptl_crystal_density_method    'not measured'
_exptl_crystal_F_000             528
_exptl_absorpt_coefficient_mu    0.851
_exptl_absorpt_correction_type   multi-scan
_exptl_absorpt_correction_T_min  0.8395
_exptl_absorpt_correction_T_max  0.8909
_exptl_absorpt_process_details   'SADABS (Sheldrick, 2008)'

_exptl_special_details           
;
?
;

_diffrn_ambient_temperature      173(2)
_diffrn_radiation_wavelength     0.71073
_diffrn_radiation_type           MoK\a
_diffrn_radiation_source         'fine-focus sealed tube'
_diffrn_radiation_monochromator  graphite
_diffrn_measurement_device_type  'CCD area detector'
_diffrn_measurement_method       'phi and omega scans'
_diffrn_detector_area_resol_mean ?
_diffrn_standards_number         ?
_diffrn_standards_interval_count ?
_diffrn_standards_interval_time  ?
_diffrn_standards_decay_%        ?
_diffrn_reflns_number            22509
_diffrn_reflns_av_R_equivalents  0.0489
_diffrn_reflns_av_sigmaI/netI    0.0307
_diffrn_reflns_limit_h_min       -16
_diffrn_reflns_limit_h_max       16
_diffrn_reflns_limit_k_min       -9
_diffrn_reflns_limit_k_max       9
_diffrn_reflns_limit_l_min       -17
_diffrn_reflns_limit_l_max       17
_diffrn_reflns_theta_min         1.90
_diffrn_reflns_theta_max         25.49
_reflns_number_total             2775
_reflns_number_gt                2134
_reflns_threshold_expression     >2sigma(I)

_computing_data_collection       'Bruker SMART'
_computing_cell_refinement       'Bruker SMART'
_computing_data_reduction        'Bruker SAINT'
_computing_structure_solution    'SHELXS-97 (Sheldrick, 1990)'
_computing_structure_refinement  'SHELXL-97 (Sheldrick, 1997)'
_computing_molecular_graphics    'Bruker SHELXTL'
_computing_publication_material  'Bruker SHELXTL'

_refine_special_details          
;
Refinement of F^2^ against ALL reflections. The weighted R-factor wR and
goodness of fit S are based on F^2^, conventional R-factors R are based
on F, with F set to zero for negative F^2^. The threshold expression of
F^2^ > 2sigma(F^2^) is used only for calculating R-factors(gt) etc. and is
not relevant to the choice of reflections for refinement. R-factors based
on F^2^ are statistically about twice as large as those based on F, and R-
factors based on ALL data will be even larger.

;

_refine_ls_structure_factor_coef Fsqd
_refine_ls_matrix_type           full
_refine_ls_weighting_scheme      calc
_refine_ls_weighting_details     
'calc w=1/[\s^2^(Fo^2^)+(0.1300P)^2^+0.0000P] where P=(Fo^2^+2Fc^2^)/3'
_atom_sites_solution_primary     direct
_atom_sites_solution_secondary   difmap
_atom_sites_solution_hydrogens   geom
_refine_ls_hydrogen_treatment    constr
_refine_ls_extinction_method     none
_refine_ls_extinction_coef       ?
_refine_ls_number_reflns         2775
_refine_ls_number_parameters     159
_refine_ls_number_restraints     0
_refine_ls_R_factor_all          0.0726
_refine_ls_R_factor_gt           0.0588
_refine_ls_wR_factor_ref         0.1828
_refine_ls_wR_factor_gt          0.1733
_refine_ls_goodness_of_fit_ref   1.028
_refine_ls_restrained_S_all      1.028
_refine_ls_shift/su_max          0.000
_refine_ls_shift/su_mean         0.000

loop_
_atom_site_label
_atom_site_type_symbol
_atom_site_fract_x
_atom_site_fract_y
_atom_site_fract_z
_atom_site_U_iso_or_equiv
_atom_site_adp_type
_atom_site_occupancy
_atom_site_symmetry_multiplicity
_atom_site_calc_flag
_atom_site_refinement_flags
_atom_site_disorder_assembly
_atom_site_disorder_group
Zn1 Zn 0.7500 0.59980(7) 0.7500 0.0602(3) Uani 1 2 d S . .
N1 N 0.8138(2) 0.4155(3) 0.6761(2) 0.0588(7) Uani 1 1 d . . .
C1 C 0.7871(3) 0.3892(4) 0.5815(3) 0.0597(9) Uani 1 1 d . . .
H1 H 0.7497 0.4768 0.5448 0.072 Uiso 1 1 calc R . .
C2 C 0.8119(2) 0.2423(5) 0.5374(2) 0.0605(9) Uani 1 1 d . . .
H2 H 0.7920 0.2296 0.4709 0.073 Uiso 1 1 calc R . .
C3 C 0.8665(3) 0.1091(4) 0.5885(3) 0.0581(9) Uani 1 1 d . . .
C4 C 0.8935(3) 0.1392(5) 0.6849(3) 0.0620(9) Uani 1 1 d . . .
H4 H 0.9303 0.0535 0.7235 0.074 Uiso 1 1 calc R . .
C5 C 0.8675(3) 0.2909(5) 0.7247(2) 0.0634(9) Uani 1 1 d . . .
H5 H 0.8888 0.3087 0.7906 0.076 Uiso 1 1 calc R . .
C6 C 0.8912(3) -0.0505(5) 0.5431(3) 0.0658(9) Uani 1 1 d . . .
H6 H 0.8710 -0.0583 0.4764 0.079 Uiso 1 1 calc R . .
C7 C 0.9393(3) -0.1870(5) 0.5849(2) 0.0649(9) Uani 1 1 d . . .
H7 H 0.9562 -0.1814 0.6519 0.078 Uiso 1 1 calc R . .
C8 C 0.9692(2) -0.3449(5) 0.5396(2) 0.0571(8) Uani 1 1 d . . .
C9 C 0.9456(3) -0.3802(4) 0.4422(2) 0.0584(9) Uani 1 1 d . . .
H9 H 0.9083 -0.2976 0.4018 0.070 Uiso 1 1 calc R . .
C10 C 1.0244(3) -0.4692(5) 0.5951(2) 0.0597(9) Uani 1 1 d . . .
H10 H 1.0420 -0.4484 0.6612 0.072 Uiso 1 1 calc R . .
O1 O 0.8231(2) 0.7626(4) 0.8343(2) 0.0930(10) Uani 1 1 d . . .
O2 O 0.9406(5) 0.5871(5) 0.8733(5) 0.213(4) Uani 1 1 d . . .
C11 C 0.9043(4) 0.7291(5) 0.8771(3) 0.0798(12) Uani 1 1 d . . .
C12 C 0.9549(3) 0.8689(4) 0.9410(3) 0.0617(9) Uani 1 1 d . . .
C13 C 1.0414(3) 0.8380(6) 1.0000(4) 0.0954(16) Uani 1 1 d . . .
H13 H 1.0700 0.7246 1.0015 0.114 Uiso 1 1 calc R . .
C14 C 0.9127(3) 1.0312(6) 0.9433(3) 0.0851(13) Uani 1 1 d . . .
H14 H 0.8513 1.0534 0.9053 0.102 Uiso 1 1 calc R . .

loop_
_atom_site_aniso_label
_atom_site_aniso_U_11
_atom_site_aniso_U_22
_atom_site_aniso_U_33
_atom_site_aniso_U_23
_atom_site_aniso_U_13
_atom_site_aniso_U_12
Zn1 0.0612(4) 0.0469(4) 0.0666(4) 0.000 -0.0078(3) 0.000
N1 0.0580(17) 0.0571(19) 0.0572(16) 0.0036(13) -0.0034(13) -0.0034(13)
C1 0.056(2) 0.059(2) 0.060(2) 0.0099(16) -0.0017(16) -0.0086(15)
C2 0.058(2) 0.069(2) 0.0502(18) 0.0006(16) -0.0033(15) -0.0114(17)
C3 0.055(2) 0.058(2) 0.059(2) -0.0038(15) 0.0021(16) -0.0093(15)
C4 0.072(2) 0.055(2) 0.056(2) 0.0020(15) 0.0003(17) 0.0038(17)
C5 0.078(2) 0.057(2) 0.0530(19) 0.0048(16) 0.0024(17) 0.0060(17)
C6 0.072(2) 0.069(2) 0.0527(19) -0.0034(17) 0.0010(17) -0.0055(19)
C7 0.073(2) 0.069(3) 0.0501(18) -0.0057(17) 0.0033(16) -0.0068(19)
C8 0.0568(19) 0.067(2) 0.0456(17) -0.0058(15) 0.0024(14) -0.0023(16)
C9 0.060(2) 0.065(2) 0.0471(17) -0.0016(15) -0.0012(15) -0.0048(16)
C10 0.063(2) 0.071(2) 0.0424(16) -0.0059(16) 0.0015(15) -0.0027(18)
O1 0.087(2) 0.079(2) 0.104(2) -0.0276(17) -0.0117(18) -0.0069(16)
O2 0.212(6) 0.094(3) 0.270(7) -0.089(4) -0.151(5) 0.063(3)
C11 0.105(3) 0.043(2) 0.078(3) 0.0005(18) -0.023(2) 0.011(2)
C12 0.075(2) 0.044(2) 0.059(2) 0.0010(14) -0.0094(17) 0.0016(16)
C13 0.103(3) 0.055(2) 0.112(4) -0.016(3) -0.033(3) 0.024(2)
C14 0.076(3) 0.067(3) 0.099(3) -0.018(2) -0.026(2) 0.019(2)

_geom_special_details            
;
All esds (except the esd in the dihedral angle between two l.s. planes)
are estimated using the full covariance matrix. The cell esds are taken
into account individually in the estimation of esds in distances, angles
and torsion angles; correlations between esds in cell parameters are only
used when they are defined by crystal symmetry. An approximate (isotropic)
treatment of cell esds is used for estimating esds involving l.s. planes.
;

loop_
_geom_bond_atom_site_label_1
_geom_bond_atom_site_label_2
_geom_bond_distance
_geom_bond_site_symmetry_2
_geom_bond_publ_flag
Zn1 O1 1.905(3) . ?
Zn1 O1 1.905(3) 2_656 ?
Zn1 N1 2.044(3) 2_656 ?
Zn1 N1 2.044(3) . ?
N1 C5 1.333(4) . ?
N1 C1 1.357(5) . ?
C1 C2 1.356(5) . ?
C2 C3 1.402(5) . ?
C3 C4 1.386(5) . ?
C3 C6 1.446(5) . ?
C4 C5 1.362(5) . ?
C6 C7 1.326(5) . ?
C7 C8 1.458(5) . ?
C8 C10 1.386(5) . ?
C8 C9 1.402(5) . ?
C9 C10 1.359(5) 3_746 ?
C10 C9 1.359(5) 3_746 ?
O1 C11 1.222(5) . ?
O2 C11 1.199(5) . ?
C11 C12 1.503(5) . ?
C12 C14 1.372(5) . ?
C12 C13 1.374(5) . ?
C13 C14 1.376(6) 3_777 ?
C14 C13 1.376(6) 3_777 ?

loop_
_geom_angle_atom_site_label_1
_geom_angle_atom_site_label_2
_geom_angle_atom_site_label_3
_geom_angle
_geom_angle_site_symmetry_1
_geom_angle_site_symmetry_3
_geom_angle_publ_flag
O1 Zn1 O1 98.7(2) . 2_656 ?
O1 Zn1 N1 110.68(13) . 2_656 ?
O1 Zn1 N1 122.85(13) 2_656 2_656 ?
O1 Zn1 N1 122.85(13) . . ?
O1 Zn1 N1 110.68(13) 2_656 . ?
N1 Zn1 N1 93.16(16) 2_656 . ?
C5 N1 C1 117.1(3) . . ?
C5 N1 Zn1 118.3(2) . . ?
C1 N1 Zn1 122.9(2) . . ?
N1 C1 C2 122.3(3) . . ?
C1 C2 C3 120.9(3) . . ?
C4 C3 C2 115.8(3) . . ?
C4 C3 C6 122.7(3) . . ?
C2 C3 C6 121.6(3) . . ?
C5 C4 C3 120.5(3) . . ?
N1 C5 C4 123.4(3) . . ?
C7 C6 C3 126.7(3) . . ?
C6 C7 C8 127.4(3) . . ?
C10 C8 C9 117.1(3) . . ?
C10 C8 C7 118.8(3) . . ?
C9 C8 C7 124.1(3) . . ?
C10 C9 C8 120.9(3) 3_746 . ?
C9 C10 C8 122.0(3) 3_746 . ?
C11 O1 Zn1 122.4(3) . . ?
O2 C11 O1 121.9(4) . . ?
O2 C11 C12 120.5(4) . . ?
O1 C11 C12 117.4(4) . . ?
C14 C12 C13 118.5(4) . . ?
C14 C12 C11 119.5(3) . . ?
C13 C12 C11 121.9(3) . . ?
C12 C13 C14 120.9(4) . 3_777 ?
C12 C14 C13 120.5(4) . 3_777 ?

_diffrn_measured_fraction_theta_max 1.000
_diffrn_reflns_theta_full        25.49
_diffrn_measured_fraction_theta_full 1.000
_refine_diff_density_max         0.696
_refine_diff_density_min         -0.414
_refine_diff_density_rms         0.066

# SQUEEZE RESULTS (APPEND TO CIF)
loop_
_platon_squeeze_void_nr
_platon_squeeze_void_average_x
_platon_squeeze_void_average_y
_platon_squeeze_void_average_z
_platon_squeeze_void_volume
_platon_squeeze_void_count_electrons
1 0.250 0.015 0.750 231.4 61.8
2 0.750 -0.064 0.250 231.4 61.8
_platon_squeeze_details          
;
PLATON: Total Potential Solvent Accessible Void Vol. 466.3 Ang^3
(31.2%) First we tried to model the highly disordered solvent region.
The scattered electron densities were assigned to 18 O of water
molecules with occupancies varies from 0.0625 to 0.25 of which
7 of them were sitting at the special position. We were unable to
model DMA which were recognized by H-1 NMR spectral data.
However, the model refined to R1 =0.0902 for 2067 Fo > 4 sig(Fo)
and 0.1115 for all 2775 data and 218 parameters with 0 restraints.
Since there is no disorder in the main frame of the structure and
the solvent region could not be modelled satisfactorily, we
resorted to SQUEEZE.
;
