####################################################################### 
# 
# This file contains crystal structure data downloaded from the 
# Cambridge Structural Database (CSD) hosted by the Cambridge 
# Crystallographic Data Centre (CCDC).
# 
# Full information about CCDC data access policies and citation 
# guidelines are available at http://www.ccdc.cam.ac.uk/access/V1 
# 
# Audit and citation data items may have been added by the CCDC. 
# Please retain this information to preserve the provenance of 
# this file and to allow appropriate attribution of the data. 
# 
#######################################################################

data_compound2
_audit_block_doi                 10.5517/cc100td7
_database_code_depnum_ccdc_archive 'CCDC 924308'
loop_
_citation_id
_citation_doi
_citation_year
1 10.1002/anie.201308606 2014
_audit_update_record             
;
2013-02-13 deposited with the CCDC.	2023-04-06 downloaded from the CCDC.
;
#TrackingRef 'InHyeokPark.cif'


# squeezed data_jj2

_audit_creation_method           SHELXL-97
_chemical_name_systematic        
;
?
;
_chemical_name_common            ?
_chemical_melting_point          ?
_chemical_formula_moiety         ?
_chemical_formula_sum            'C28 H20 N2 O4 Zn'
_chemical_formula_weight         513.83

loop_
_atom_type_symbol
_atom_type_description
_atom_type_scat_dispersion_real
_atom_type_scat_dispersion_imag
_atom_type_scat_source
C C 0.0033 0.0016 'International Tables Vol C Tables 4.2.6.8 and 6.1.1.4'
H H 0.0000 0.0000 'International Tables Vol C Tables 4.2.6.8 and 6.1.1.4'
N N 0.0061 0.0033 'International Tables Vol C Tables 4.2.6.8 and 6.1.1.4'
O O 0.0106 0.0060 'International Tables Vol C Tables 4.2.6.8 and 6.1.1.4'
Zn Zn 0.2839 1.4301 'International Tables Vol C Tables 4.2.6.8 and 6.1.1.4'

_symmetry_cell_setting           Triclinic
_symmetry_space_group_name_H-M   P-1

loop_
_symmetry_equiv_pos_as_xyz
'x, y, z'
'-x, -y, -z'

_cell_length_a                   7.3936(8)
_cell_length_b                   14.3076(16)
_cell_length_c                   14.5432(16)
_cell_angle_alpha                103.721(8)
_cell_angle_beta                 92.319(8)
_cell_angle_gamma                93.281(8)
_cell_volume                     1489.8(3)
_cell_formula_units_Z            2
_cell_measurement_temperature    173(2)
_cell_measurement_reflns_used    2373
_cell_measurement_theta_min      2.76
_cell_measurement_theta_max      23.59

_exptl_crystal_description       block
_exptl_crystal_colour            white
_exptl_crystal_size_max          0.07
_exptl_crystal_size_mid          0.06
_exptl_crystal_size_min          0.04
_exptl_crystal_density_meas      'not measured'
_exptl_crystal_density_diffrn    1.145
_exptl_crystal_density_method    'not measured'
_exptl_crystal_F_000             528
_exptl_absorpt_coefficient_mu    0.854
_exptl_absorpt_correction_type   multi-scan
_exptl_absorpt_correction_T_min  0.9434
_exptl_absorpt_correction_T_max  0.9699
_exptl_absorpt_process_details   'SADABS (Sheldrick, 2008)'

_exptl_special_details           
;
?
;

_diffrn_ambient_temperature      173(2)
_diffrn_radiation_wavelength     0.71073
_diffrn_radiation_type           MoK\a
_diffrn_radiation_source         'fine-focus sealed tube'
_diffrn_radiation_monochromator  graphite
_diffrn_measurement_device_type  'CCD area detector'
_diffrn_measurement_method       'phi and omega scans'
_diffrn_detector_area_resol_mean ?
_diffrn_standards_number         ?
_diffrn_standards_interval_count ?
_diffrn_standards_interval_time  ?
_diffrn_standards_decay_%        ?
_diffrn_reflns_number            18537
_diffrn_reflns_av_R_equivalents  0.0926
_diffrn_reflns_av_sigmaI/netI    0.1155
_diffrn_reflns_limit_h_min       -8
_diffrn_reflns_limit_h_max       8
_diffrn_reflns_limit_k_min       -17
_diffrn_reflns_limit_k_max       17
_diffrn_reflns_limit_l_min       -17
_diffrn_reflns_limit_l_max       17
_diffrn_reflns_theta_min         1.47
_diffrn_reflns_theta_max         25.50
_reflns_number_total             5476
_reflns_number_gt                3200
_reflns_threshold_expression     >2sigma(I)

_computing_data_collection       'Bruker SMART'
_computing_cell_refinement       'Bruker SMART'
_computing_data_reduction        'Bruker SAINT'
_computing_structure_solution    'SHELXS-97 (Sheldrick, 1990)'
_computing_structure_refinement  'SHELXL-97 (Sheldrick, 1997)'
_computing_molecular_graphics    'Bruker SHELXTL'
_computing_publication_material  'Bruker SHELXTL'

_refine_special_details          
;
Refinement of F^2^ against ALL reflections. The weighted R-factor wR and
goodness of fit S are based on F^2^, conventional R-factors R are based
on F, with F set to zero for negative F^2^. The threshold expression of
F^2^ > 2sigma(F^2^) is used only for calculating R-factors(gt) etc. and is
not relevant to the choice of reflections for refinement. R-factors based
on F^2^ are statistically about twice as large as those based on F, and R-
factors based on ALL data will be even larger.
;

_refine_ls_structure_factor_coef Fsqd
_refine_ls_matrix_type           full
_refine_ls_weighting_scheme      calc
_refine_ls_weighting_details     
'calc w=1/[\s^2^(Fo^2^)+(0.0605P)^2^+0.1050P] where P=(Fo^2^+2Fc^2^)/3'
_atom_sites_solution_primary     direct
_atom_sites_solution_secondary   difmap
_atom_sites_solution_hydrogens   geom
_refine_ls_hydrogen_treatment    constr
_refine_ls_extinction_method     none
_refine_ls_extinction_coef       ?
_refine_ls_number_reflns         5476
_refine_ls_number_parameters     316
_refine_ls_number_restraints     24
_refine_ls_R_factor_all          0.1053
_refine_ls_R_factor_gt           0.0626
_refine_ls_wR_factor_ref         0.1507
_refine_ls_wR_factor_gt          0.1385
_refine_ls_goodness_of_fit_ref   1.008
_refine_ls_restrained_S_all      1.029
_refine_ls_shift/su_max          0.000
_refine_ls_shift/su_mean         0.000

loop_
_atom_site_label
_atom_site_type_symbol
_atom_site_fract_x
_atom_site_fract_y
_atom_site_fract_z
_atom_site_U_iso_or_equiv
_atom_site_adp_type
_atom_site_occupancy
_atom_site_symmetry_multiplicity
_atom_site_calc_flag
_atom_site_refinement_flags
_atom_site_disorder_assembly
_atom_site_disorder_group
Zn1 Zn 0.55988(7) 0.73686(4) 0.73141(4) 0.0382(2) Uani 1 1 d . . .
O1 O 0.7490(4) 0.8138(3) 0.8158(2) 0.0532(9) Uani 1 1 d U . .
O2 O 0.5609(5) 0.9259(3) 0.8669(3) 0.0721(11) Uani 1 1 d U . .
O3 O 0.6879(7) 0.6606(4) 0.6272(4) 0.1072(18) Uani 1 1 d U . .
O4 O 0.6966(7) 0.5405(4) 0.6967(4) 0.1229(19) Uani 1 1 d U . .
N1 N 0.3761(5) 0.6872(3) 0.8139(3) 0.0381(9) Uani 1 1 d . . .
N2 N 0.3717(5) 0.7915(3) 0.6559(3) 0.0406(10) Uani 1 1 d . . .
C1 C 0.2296(6) 0.6295(4) 0.7753(4) 0.0531(14) Uani 1 1 d . . .
H1 H 0.2123 0.6107 0.7082 0.064 Uiso 1 1 calc R . .
C2 C 0.1029(6) 0.5962(4) 0.8295(4) 0.0530(14) Uani 1 1 d . . .
H2A H -0.0014 0.5574 0.7994 0.064 Uiso 1 1 calc R . .
C3 C 0.1276(5) 0.6194(3) 0.9281(4) 0.0410(12) Uani 1 1 d . . .
C4 C 0.2751(6) 0.6831(3) 0.9669(3) 0.0432(12) Uani 1 1 d . . .
H4 H 0.2938 0.7052 1.0337 0.052 Uiso 1 1 calc R . .
C5 C 0.3949(6) 0.7142(3) 0.9076(4) 0.0423(12) Uani 1 1 d . . .
H5A H 0.4956 0.7572 0.9357 0.051 Uiso 1 1 calc R . .
C6 C 0.0158(5) 0.5755(4) 0.9931(3) 0.0401(12) Uani 1 1 d . . .
H6 H -0.0424 0.6270 1.0390 0.048 Uiso 1 1 calc R . .
C7 C 0.1238(5) 0.5102(3) 1.0485(3) 0.0376(12) Uani 1 1 d . . .
H7 H 0.1138 0.5333 1.1185 0.045 Uiso 1 1 calc R . .
C8 C 0.3193(5) 0.4980(3) 1.0249(3) 0.0331(11) Uani 1 1 d . . .
C9 C 0.4548(5) 0.5408(3) 1.0911(3) 0.0408(12) Uani 1 1 d . . .
H9 H 0.4259 0.5696 1.1541 0.049 Uiso 1 1 calc R . .
C10 C 0.3636(5) 0.4578(3) 0.9340(3) 0.0387(12) Uani 1 1 d . . .
H10 H 0.2704 0.4287 0.8874 0.046 Uiso 1 1 calc R . .
C11 C 0.2478(6) 0.8488(4) 0.6992(4) 0.0533(14) Uani 1 1 d . . .
H11 H 0.2506 0.8635 0.7665 0.064 Uiso 1 1 calc R . .
C12 C 0.1193(6) 0.8870(4) 0.6536(4) 0.0500(14) Uani 1 1 d . . .
H12 H 0.0339 0.9259 0.6888 0.060 Uiso 1 1 calc R . .
C13 C 0.1114(5) 0.8696(3) 0.5547(3) 0.0380(11) Uani 1 1 d . . .
C14 C 0.2351(6) 0.8073(4) 0.5089(3) 0.0457(13) Uani 1 1 d . . .
H14 H 0.2327 0.7901 0.4416 0.055 Uiso 1 1 calc R . .
C15 C 0.3623(6) 0.7701(4) 0.5612(4) 0.0466(13) Uani 1 1 d . . .
H15 H 0.4457 0.7280 0.5282 0.056 Uiso 1 1 calc R . .
C16 C 0.0006(5) 0.9220(3) 0.4970(3) 0.0368(11) Uani 1 1 d . . .
H16 H -0.0756 0.8748 0.4465 0.044 Uiso 1 1 calc R . .
C17 C 0.1150(5) 0.9960(3) 0.4518(3) 0.0366(11) Uani 1 1 d . . .
H17 H 0.0898 0.9813 0.3816 0.044 Uiso 1 1 calc R . .
C18 C 0.3160(5) 1.0050(3) 0.4763(3) 0.0323(11) Uani 1 1 d . . .
C19 C 0.4333(5) 0.9695(3) 0.4078(3) 0.0388(12) Uani 1 1 d . . .
H19 H 0.3891 0.9485 0.3435 0.047 Uiso 1 1 calc R . .
C20 C 0.3848(5) 1.0361(3) 0.5689(3) 0.0390(12) Uani 1 1 d . . .
H20 H 0.3063 1.0617 0.6174 0.047 Uiso 1 1 calc R . .
C21 C 0.7106(6) 0.8936(4) 0.8685(4) 0.0477(13) Uani 1 1 d . . .
C22 C 0.8601(6) 0.9499(4) 0.9376(4) 0.0454(13) Uani 1 1 d . . .
C23 C 1.0350(7) 0.9156(4) 0.9373(4) 0.0555(14) Uani 1 1 d . . .
H23 H 1.0582 0.8569 0.8942 0.067 Uiso 1 1 calc R . .
C24 C 0.8270(6) 1.0338(4) 1.0009(4) 0.0517(14) Uani 1 1 d . . .
H24 H 0.7091 1.0570 1.0023 0.062 Uiso 1 1 calc R . .
C25 C 0.7324(10) 0.5907(7) 0.6358(6) 0.091(3) Uani 1 1 d . . .
C26 C 0.8742(7) 0.5434(5) 0.5606(4) 0.0612(17) Uani 1 1 d . . .
C27 C 0.9290(9) 0.4538(6) 0.5631(5) 0.085(2) Uani 1 1 d . . .
H27 H 0.8807 0.4215 0.6076 0.101 Uiso 1 1 calc R . .
C28 C 0.9472(9) 0.5895(5) 0.4982(5) 0.084(2) Uani 1 1 d . . .
H28 H 0.9125 0.6520 0.4967 0.101 Uiso 1 1 calc R . .

loop_
_atom_site_aniso_label
_atom_site_aniso_U_11
_atom_site_aniso_U_22
_atom_site_aniso_U_33
_atom_site_aniso_U_23
_atom_site_aniso_U_13
_atom_site_aniso_U_12
Zn1 0.0271(3) 0.0427(4) 0.0464(4) 0.0123(3) 0.0059(2) 0.0074(2)
O1 0.0390(18) 0.057(2) 0.058(2) 0.0038(18) 0.0062(16) -0.0004(17)
O2 0.043(2) 0.084(3) 0.079(3) -0.002(2) -0.0017(18) 0.0122(19)
O3 0.087(3) 0.107(3) 0.114(3) -0.005(3) -0.023(3) 0.048(3)
O4 0.109(3) 0.134(4) 0.120(4) 0.017(3) 0.022(3) 0.014(3)
N1 0.030(2) 0.044(3) 0.041(2) 0.012(2) -0.0030(18) 0.0014(18)
N2 0.032(2) 0.047(3) 0.048(3) 0.017(2) 0.0123(19) 0.0112(19)
C1 0.042(3) 0.068(4) 0.049(3) 0.021(3) -0.012(3) -0.017(3)
C2 0.033(3) 0.068(4) 0.059(4) 0.026(3) -0.012(3) -0.016(3)
C3 0.019(2) 0.042(3) 0.059(3) 0.007(3) 0.007(2) 0.003(2)
C4 0.033(3) 0.048(3) 0.045(3) 0.002(2) 0.010(2) -0.002(2)
C5 0.029(2) 0.042(3) 0.052(3) 0.005(2) 0.002(2) -0.009(2)
C6 0.019(2) 0.050(3) 0.051(3) 0.011(2) 0.006(2) -0.001(2)
C7 0.015(2) 0.050(3) 0.046(3) 0.008(2) 0.003(2) -0.002(2)
C8 0.013(2) 0.043(3) 0.043(3) 0.010(2) 0.0055(19) 0.0011(19)
C9 0.021(2) 0.050(3) 0.047(3) 0.002(2) 0.008(2) 0.001(2)
C10 0.016(2) 0.048(3) 0.048(3) 0.006(2) -0.002(2) -0.002(2)
C11 0.046(3) 0.076(4) 0.045(3) 0.022(3) 0.018(3) 0.028(3)
C12 0.034(3) 0.069(4) 0.053(3) 0.018(3) 0.018(2) 0.026(3)
C13 0.019(2) 0.048(3) 0.051(3) 0.018(2) 0.001(2) 0.005(2)
C14 0.034(3) 0.053(3) 0.043(3) -0.002(2) -0.002(2) 0.011(2)
C15 0.035(3) 0.051(3) 0.054(3) 0.007(3) 0.005(2) 0.017(2)
C16 0.015(2) 0.050(3) 0.042(3) 0.003(2) -0.0026(19) 0.004(2)
C17 0.018(2) 0.054(3) 0.036(3) 0.007(2) -0.0037(19) 0.006(2)
C18 0.016(2) 0.044(3) 0.036(3) 0.007(2) 0.0025(19) 0.0059(19)
C19 0.026(2) 0.056(3) 0.034(3) 0.008(2) -0.004(2) 0.010(2)
C20 0.018(2) 0.054(3) 0.040(3) 0.000(2) 0.005(2) 0.008(2)
C21 0.033(3) 0.056(4) 0.051(3) 0.006(3) 0.008(2) 0.000(3)
C22 0.029(3) 0.052(3) 0.054(3) 0.009(3) 0.013(2) 0.000(2)
C23 0.047(3) 0.059(4) 0.058(4) 0.003(3) 0.017(3) 0.009(3)
C24 0.030(3) 0.059(4) 0.060(4) 0.002(3) 0.005(3) 0.006(3)
C25 0.077(5) 0.098(7) 0.094(6) 0.032(5) -0.045(4) -0.033(5)
C26 0.029(3) 0.075(5) 0.059(4) -0.026(3) 0.003(3) 0.007(3)
C27 0.085(5) 0.084(5) 0.087(5) 0.027(4) 0.019(4) -0.005(4)
C28 0.086(5) 0.054(4) 0.113(6) 0.014(4) 0.006(5) 0.028(4)

_geom_special_details            
;
All esds (except the esd in the dihedral angle between two l.s. planes)
are estimated using the full covariance matrix. The cell esds are taken
into account individually in the estimation of esds in distances, angles
and torsion angles; correlations between esds in cell parameters are only
used when they are defined by crystal symmetry. An approximate (isotropic)
treatment of cell esds is used for estimating esds involving l.s. planes.
;

loop_
_geom_bond_atom_site_label_1
_geom_bond_atom_site_label_2
_geom_bond_distance
_geom_bond_site_symmetry_2
_geom_bond_publ_flag
Zn1 O1 1.928(3) . ?
Zn1 O3 1.959(5) . ?
Zn1 N2 2.040(4) . ?
Zn1 N1 2.054(4) . ?
O1 C21 1.269(6) . ?
O2 C21 1.225(5) . ?
O3 C25 1.104(8) . ?
O4 C25 1.292(8) . ?
N1 C5 1.325(6) . ?
N1 C1 1.341(6) . ?
N2 C15 1.336(6) . ?
N2 C11 1.340(6) . ?
C1 C2 1.383(6) . ?
C2 C3 1.395(7) . ?
C3 C4 1.390(6) . ?
C3 C6 1.501(6) . ?
C4 C5 1.387(6) . ?
C6 C7 1.546(6) 2_567 ?
C6 C7 1.598(6) . ?
C7 C8 1.509(5) . ?
C7 C6 1.546(6) 2_567 ?
C8 C9 1.369(6) . ?
C8 C10 1.372(6) . ?
C9 C10 1.406(5) 2_667 ?
C10 C9 1.406(5) 2_667 ?
C11 C12 1.350(6) . ?
C12 C13 1.398(6) . ?
C13 C14 1.392(6) . ?
C13 C16 1.499(6) . ?
C14 C15 1.392(6) . ?
C16 C17 1.554(6) 2_576 ?
C16 C17 1.594(6) . ?
C17 C18 1.505(5) . ?
C17 C16 1.554(6) 2_576 ?
C18 C19 1.372(6) . ?
C18 C20 1.381(6) . ?
C19 C20 1.385(5) 2_676 ?
C20 C19 1.385(5) 2_676 ?
C21 C22 1.518(7) . ?
C22 C24 1.370(7) . ?
C22 C23 1.409(6) . ?
C23 C24 1.381(7) 2_777 ?
C24 C23 1.381(7) 2_777 ?
C25 C26 1.604(10) . ?
C26 C28 1.354(9) . ?
C26 C27 1.375(9) . ?
C27 C28 1.373(9) 2_766 ?
C28 C27 1.373(9) 2_766 ?

loop_
_geom_angle_atom_site_label_1
_geom_angle_atom_site_label_2
_geom_angle_atom_site_label_3
_geom_angle
_geom_angle_site_symmetry_1
_geom_angle_site_symmetry_3
_geom_angle_publ_flag
O1 Zn1 O3 104.70(18) . . ?
O1 Zn1 N2 124.35(16) . . ?
O3 Zn1 N2 99.81(19) . . ?
O1 Zn1 N1 107.24(15) . . ?
O3 Zn1 N1 127.5(2) . . ?
N2 Zn1 N1 95.18(14) . . ?
C21 O1 Zn1 118.4(3) . . ?
C25 O3 Zn1 116.8(7) . . ?
C5 N1 C1 117.6(4) . . ?
C5 N1 Zn1 120.8(3) . . ?
C1 N1 Zn1 121.5(3) . . ?
C15 N2 C11 116.6(4) . . ?
C15 N2 Zn1 122.0(3) . . ?
C11 N2 Zn1 121.3(3) . . ?
N1 C1 C2 122.5(5) . . ?
C1 C2 C3 120.3(5) . . ?
C4 C3 C2 116.3(4) . . ?
C4 C3 C6 118.7(4) . . ?
C2 C3 C6 124.9(4) . . ?
C5 C4 C3 119.7(5) . . ?
N1 C5 C4 123.4(4) . . ?
C3 C6 C7 120.0(4) . 2_567 ?
C3 C6 C7 114.6(3) . . ?
C7 C6 C7 90.3(3) 2_567 . ?
C8 C7 C6 117.7(4) . 2_567 ?
C8 C7 C6 115.7(4) . . ?
C6 C7 C6 89.7(3) 2_567 . ?
C9 C8 C10 119.0(4) . . ?
C9 C8 C7 119.5(4) . . ?
C10 C8 C7 120.7(4) . . ?
C8 C9 C10 120.2(4) . 2_667 ?
C8 C10 C9 120.8(4) . 2_667 ?
N2 C11 C12 124.4(5) . . ?
C11 C12 C13 120.3(4) . . ?
C14 C13 C12 115.7(4) . . ?
C14 C13 C16 118.3(4) . . ?
C12 C13 C16 125.4(4) . . ?
C15 C14 C13 120.3(4) . . ?
N2 C15 C14 122.5(4) . . ?
C13 C16 C17 119.4(4) . 2_576 ?
C13 C16 C17 114.7(3) . . ?
C17 C16 C17 90.6(3) 2_576 . ?
C18 C17 C16 118.1(4) . 2_576 ?
C18 C17 C16 115.2(4) . . ?
C16 C17 C16 89.4(3) 2_576 . ?
C19 C18 C20 118.1(4) . . ?
C19 C18 C17 119.8(4) . . ?
C20 C18 C17 121.4(4) . . ?
C18 C19 C20 120.9(4) . 2_676 ?
C18 C20 C19 120.9(4) . 2_676 ?
O2 C21 O1 123.6(5) . . ?
O2 C21 C22 119.4(5) . . ?
O1 C21 C22 117.0(4) . . ?
C24 C22 C23 119.3(5) . . ?
C24 C22 C21 120.7(4) . . ?
C23 C22 C21 120.0(5) . . ?
C24 C23 C22 120.7(5) 2_777 . ?
C22 C24 C23 119.9(5) . 2_777 ?
O3 C25 O4 132.4(10) . . ?
O3 C25 C26 114.2(8) . . ?
O4 C25 C26 113.3(8) . . ?
C28 C26 C27 119.0(5) . . ?
C28 C26 C25 123.0(7) . . ?
C27 C26 C25 118.0(7) . . ?
C28 C27 C26 120.6(6) 2_766 . ?
C26 C28 C27 120.3(6) . 2_766 ?

_diffrn_measured_fraction_theta_max 0.990
_diffrn_reflns_theta_full        25.50
_diffrn_measured_fraction_theta_full 0.990
_refine_diff_density_max         1.030
_refine_diff_density_min         -0.487
_refine_diff_density_rms         0.080
# SQUEEZE RESULTS (APPEND TO CIF)
loop_
_platon_squeeze_void_nr
_platon_squeeze_void_average_x
_platon_squeeze_void_average_y
_platon_squeeze_void_average_z
_platon_squeeze_void_volume
_platon_squeeze_void_count_electrons
1 0.065 0.234 0.769 209.3 60.6
2 -0.112 0.766 0.231 209.3 62.2
_platon_squeeze_details          
;
Total Potential Solvent Accessible Void Vol 421.0 Ang^3)s (28.25%).
The main structure was OK but the solvent region was highly
disordered. First we attempted to construct models. We were able to
resolve them to 0.25DMA and highly disordered 3.25 water molecules.
DIFX were used to constraint the geometry of DMA and H atoms were
added to calculated positions. Fragments of electron densities were
found at least in 13 different places for water O atoms. They have been
assigned to an occupancy of 0.25 each and their isotropic thermal
parameters were refined. DAMP 100 were applied to converge the model.
R1 = 0.0866 and wR2 = 0.2501 for 3199 data with Fo > 4 sig(Fo) and
R1 = 0.1459 and wR2 = 0.2817 for all 5476 data. Since the model is not
very satisfactory, we have resort to SQUEEZE.
;
#===#END




