####################################################################### 
# 
# This file contains crystal structure data downloaded from the 
# Cambridge Structural Database (CSD) hosted by the Cambridge 
# Crystallographic Data Centre (CCDC).
# 
# Full information about CCDC data access policies and citation 
# guidelines are available at http://www.ccdc.cam.ac.uk/access/V1 
# 
# Audit and citation data items may have been added by the CCDC. 
# Please retain this information to preserve the provenance of 
# this file and to allow appropriate attribution of the data. 
# 
#######################################################################

data_1DMF
_audit_block_doi                 10.5517/cc80k4y
_database_code_depnum_ccdc_archive 'CCDC 238859'
loop_
_citation_id
_citation_doi
_citation_year
1 10.1002/anie.200460712 2004
_audit_update_record             
;
2004-05-13 deposited with the CCDC.	2023-04-06 downloaded from the CCDC.
;

_audit_creation_method           SHELXL-97
_chemical_name_systematic        
;
?
;
_chemical_name_common            ?
_chemical_melting_point          ?
_chemical_formula_moiety         ?
_chemical_formula_sum            'C34 H49 N6 O12.50 Zn2'
_chemical_formula_weight         872.53

loop_
_atom_type_symbol
_atom_type_description
_atom_type_scat_dispersion_real
_atom_type_scat_dispersion_imag
_atom_type_scat_source
C C 0.0033 0.0016 'International Tables Vol C Tables 4.2.6.8 and 6.1.1.4'
H H 0.0000 0.0000 'International Tables Vol C Tables 4.2.6.8 and 6.1.1.4'
N N 0.0061 0.0033 'International Tables Vol C Tables 4.2.6.8 and 6.1.1.4'
O O 0.0106 0.0060 'International Tables Vol C Tables 4.2.6.8 and 6.1.1.4'
Zn Zn 0.2839 1.4301 'International Tables Vol C Tables 4.2.6.8 and 6.1.1.4'

_symmetry_cell_setting           tetragonal
_symmetry_space_group_name_H-M   'I 4/m c m'

loop_
_symmetry_equiv_pos_as_xyz
'x, y, z'
'-x, -y, z'
'-y, x, z'
'y, -x, z'
'-x, y, -z+1/2'
'x, -y, -z+1/2'
'y, x, -z+1/2'
'-y, -x, -z+1/2'
'x+1/2, y+1/2, z+1/2'
'-x+1/2, -y+1/2, z+1/2'
'-y+1/2, x+1/2, z+1/2'
'y+1/2, -x+1/2, z+1/2'
'-x+1/2, y+1/2, -z+1'
'x+1/2, -y+1/2, -z+1'
'y+1/2, x+1/2, -z+1'
'-y+1/2, -x+1/2, -z+1'
'-x, -y, -z'
'x, y, -z'
'y, -x, -z'
'-y, x, -z'
'x, -y, z-1/2'
'-x, y, z-1/2'
'-y, -x, z-1/2'
'y, x, z-1/2'
'-x+1/2, -y+1/2, -z+1/2'
'x+1/2, y+1/2, -z+1/2'
'y+1/2, -x+1/2, -z+1/2'
'-y+1/2, x+1/2, -z+1/2'
'x+1/2, -y+1/2, z'
'-x+1/2, y+1/2, z'
'-y+1/2, -x+1/2, z'
'y+1/2, x+1/2, z'

_cell_length_a                   15.063(2)
_cell_length_b                   15.063(2)
_cell_length_c                   19.247(5)
_cell_angle_alpha                90.00
_cell_angle_beta                 90.00
_cell_angle_gamma                90.00
_cell_volume                     4367.1(14)
_cell_formula_units_Z            4
_cell_measurement_temperature    243(2)
_cell_measurement_reflns_used    89
_cell_measurement_theta_min      ?
_cell_measurement_theta_max      ?

_exptl_crystal_description       brick
_exptl_crystal_colour            colorless
_exptl_crystal_size_max          0.75
_exptl_crystal_size_mid          0.40
_exptl_crystal_size_min          0.40
_exptl_crystal_density_meas      ?
_exptl_crystal_density_diffrn    1.327
_exptl_crystal_density_method    'not measured'
_exptl_crystal_F_000             1820
_exptl_absorpt_coefficient_mu    1.160
_exptl_absorpt_correction_type   semi-empirical
_exptl_absorpt_correction_T_min  0.4766
_exptl_absorpt_correction_T_max  0.6540
_exptl_absorpt_process_details   'Bruker SADABS'

_exptl_special_details           
;
?
;

_diffrn_ambient_temperature      243(2)
_diffrn_radiation_wavelength     0.71073
_diffrn_radiation_type           MoK\a
_diffrn_radiation_source         'fine-focus sealed tube'
_diffrn_radiation_monochromator  graphite
_diffrn_measurement_device_type  'SMART CCD'
_diffrn_measurement_method       'omega scan'
_diffrn_detector_area_resol_mean ?
_diffrn_standards_number         ?
_diffrn_standards_interval_count ?
_diffrn_standards_interval_time  ?
_diffrn_standards_decay_%        ?
_diffrn_reflns_number            12078
_diffrn_reflns_av_R_equivalents  0.0353
_diffrn_reflns_av_sigmaI/netI    0.0231
_diffrn_reflns_limit_h_min       -19
_diffrn_reflns_limit_h_max       18
_diffrn_reflns_limit_k_min       -14
_diffrn_reflns_limit_k_max       19
_diffrn_reflns_limit_l_min       -25
_diffrn_reflns_limit_l_max       25
_diffrn_reflns_theta_min         2.12
_diffrn_reflns_theta_max         28.27
_reflns_number_total             1448
_reflns_number_gt                1176
_reflns_threshold_expression     >2sigma(I)

_computing_data_collection       'Bruker SMART'
_computing_cell_refinement       'Bruker SAINT'
_computing_data_reduction        'Bruker SAINT'
_computing_structure_solution    'SHELXS-97 (Sheldrick, 1990)'
_computing_structure_refinement  'SHELXL-97 (Sheldrick, 1997)'
_computing_molecular_graphics    DIAMOND
_computing_publication_material  WORD

_refine_special_details          
;
Refinement of F^2^ against ALL reflections.  The weighted R-factor wR and
goodness of fit S are based on F^2^, conventional R-factors R are based
on F, with F set to zero for negative F^2^. The threshold expression of
F^2^ > 2sigma(F^2^) is used only for calculating R-factors(gt) etc. and is
not relevant to the choice of reflections for refinement.  R-factors based
on F^2^ are statistically about twice as large as those based on F, and R-
factors based on ALL data will be even larger.
;

_refine_ls_structure_factor_coef Fsqd
_refine_ls_matrix_type           full
_refine_ls_weighting_scheme      calc
_refine_ls_weighting_details     
'calc w=1/[\s^2^(Fo^2^)+(0.0842P)^2^+5.1952P] where P=(Fo^2^+2Fc^2^)/3'
_atom_sites_solution_primary     direct
_atom_sites_solution_secondary   difmap
_atom_sites_solution_hydrogens   geom
_refine_ls_hydrogen_treatment    mixed
_refine_ls_extinction_method     none
_refine_ls_extinction_coef       ?
_refine_ls_number_reflns         1448
_refine_ls_number_parameters     94
_refine_ls_number_restraints     0
_refine_ls_R_factor_all          0.0494
_refine_ls_R_factor_gt           0.0414
_refine_ls_wR_factor_ref         0.1355
_refine_ls_wR_factor_gt          0.1217
_refine_ls_goodness_of_fit_ref   1.073
_refine_ls_restrained_S_all      1.073
_refine_ls_shift/su_max          0.000
_refine_ls_shift/su_mean         0.000

loop_
_atom_site_label
_atom_site_type_symbol
_atom_site_fract_x
_atom_site_fract_y
_atom_site_fract_z
_atom_site_U_iso_or_equiv
_atom_site_adp_type
_atom_site_occupancy
_atom_site_symmetry_multiplicity
_atom_site_calc_flag
_atom_site_refinement_flags
_atom_site_disorder_assembly
_atom_site_disorder_group
Zn1 Zn 0.5000 0.5000 0.07669(2) 0.0250(2) Uani 1 4 d S . .
C2 C 0.72869(18) 0.64088(19) 0.0000 0.0334(6) Uani 1 2 d S . .
O1 O 0.62041(11) 0.55564(13) 0.05762(9) 0.0495(5) Uani 1 1 d . . .
C1 C 0.65046(18) 0.57878(19) 0.0000 0.0345(6) Uani 1 2 d S . .
C3 C 0.76291(16) 0.67189(16) 0.06231(10) 0.0419(5) Uani 1 1 d . . .
H3A H 0.7420 0.6488 0.1046 0.050 Uiso 1 1 calc R . .
N1 N 0.5000 0.5000 0.18289(19) 0.0270(8) Uani 1 4 d S . .
C1T C 0.453(3) 0.4245(15) 0.2086(4) 0.082(6) Uani 0.38 1 d P A 1
C2T C 0.525(3) 0.4137(10) 0.2111(5) 0.096(7) Uani 0.38 1 d P . 2
H1T H 0.453(4) 0.380(4) 0.195(3) 0.10(2) Uiso 0.75 1 d P . .
H2T H 0.533(4) 0.384(4) 0.202(3) 0.08(2) Uiso 0.75 1 d P . .
N1D N 0.3637(4) 0.1363(4) 0.1571(6) 0.160(3) Uani 1 2 d S . .
C2D C 0.3160(6) 0.0670(6) 0.1190(8) 0.267(7) Uani 1 1 d . . .
H2DA H 0.3500 0.0500 0.0783 0.401 Uiso 1 1 calc R . .
H2DB H 0.2585 0.0894 0.1046 0.401 Uiso 1 1 calc R . .
H2DC H 0.3078 0.0157 0.1488 0.401 Uiso 1 1 calc R . .
C1D C 0.3301(7) 0.1699(7) 0.2145(8) 0.204(6) Uani 1 2 d S . .
H1D H 0.2771 0.1504 0.2354 0.244 Uiso 0.50 1 calc PR . .
O1D O 0.3832(14) 0.2382(12) 0.2404(7) 0.266(9) Uani 0.50 1 d P . .
O1W O 0.5000 0.0000 0.0000 0.24(2) Uiso 0.50 8 d SP . .

loop_
_atom_site_aniso_label
_atom_site_aniso_U_11
_atom_site_aniso_U_22
_atom_site_aniso_U_33
_atom_site_aniso_U_23
_atom_site_aniso_U_13
_atom_site_aniso_U_12
Zn1 0.0264(2) 0.0264(2) 0.0221(3) 0.000 0.000 0.000
C2 0.0324(13) 0.0343(13) 0.0335(13) 0.000 0.000 -0.0081(11)
O1 0.0388(9) 0.0664(12) 0.0433(9) 0.0142(8) -0.0029(7) -0.0189(9)
C1 0.0296(13) 0.0361(14) 0.0377(13) 0.000 0.000 -0.0048(11)
C3 0.0471(12) 0.0501(13) 0.0283(9) 0.0055(9) -0.0003(9) -0.0164(10)
N1 0.0289(12) 0.0289(12) 0.0233(14) 0.000 0.000 0.000
C1T 0.168(18) 0.056(6) 0.024(3) -0.015(5) 0.038(9) -0.070(8)
C2T 0.22(2) 0.031(5) 0.037(5) 0.013(4) 0.063(13) 0.053(9)
N1D 0.127(4) 0.127(4) 0.227(9) -0.042(5) 0.042(5) -0.023(5)
C2D 0.149(7) 0.165(8) 0.49(2) -0.123(11) 0.017(10) -0.047(6)
C1D 0.217(10) 0.217(10) 0.178(13) -0.025(8) 0.025(8) 0.027(13)
O1D 0.40(2) 0.207(14) 0.196(10) -0.044(9) -0.022(11) -0.141(16)

_geom_special_details            
;
All esds (except the esd in the dihedral angle between two l.s. planes)
are estimated using the full covariance matrix.  The cell esds are taken
into account individually in the estimation of esds in distances, angles
and torsion angles; correlations between esds in cell parameters are only
used when they are defined by crystal symmetry.  An approximate (isotropic)
treatment of cell esds is used for estimating esds involving l.s. planes.
;

loop_
_geom_bond_atom_site_label_1
_geom_bond_atom_site_label_2
_geom_bond_distance
_geom_bond_site_symmetry_2
_geom_bond_publ_flag
Zn1 O1 2.0315(16) 2_665 ?
Zn1 O1 2.0315(16) . ?
Zn1 O1 2.0315(16) 3_655 ?
Zn1 O1 2.0315(16) 4_565 ?
Zn1 N1 2.044(4) . ?
Zn1 Zn1 2.9523(10) 17_665 ?
C2 C3 1.386(2) . ?
C2 C3 1.386(2) 18 ?
C2 C1 1.504(4) . ?
O1 C1 1.248(2) . ?
C1 O1 1.248(2) 18 ?
C3 C3 1.389(4) 31_665 ?
N1 C1T 1.430(8) 4_565 ?
N1 C1T 1.430(8) 2_665 ?
N1 C1T 1.430(8) . ?
N1 C1T 1.430(8) 3_655 ?
N1 C2T 1.459(8) 4_565 ?
N1 C2T 1.459(8) 3_655 ?
N1 C2T 1.459(8) 2_665 ?
N1 C2T 1.459(8) . ?
C1T C1T 1.71(3) 7 ?
C1T C1T 1.898(12) 4_565 ?
C1T C1T 1.898(12) 3_655 ?
C2T C2T 1.68(4) 5_655 ?
C2T C2T 1.914(11) 4_565 ?
C2T C2T 1.914(11) 3_655 ?
C2T C2T 1.98(6) 8_665 ?
N1D C1D 1.316(15) . ?
N1D C2D 1.465(10) . ?
N1D C2D 1.465(10) 31 ?
C1D O1D 1.395(14) . ?

loop_
_geom_angle_atom_site_label_1
_geom_angle_atom_site_label_2
_geom_angle_atom_site_label_3
_geom_angle
_geom_angle_site_symmetry_1
_geom_angle_site_symmetry_3
_geom_angle_publ_flag
O1 Zn1 O1 159.18(10) 2_665 . ?
O1 Zn1 O1 88.129(18) 2_665 3_655 ?
O1 Zn1 O1 88.129(18) . 3_655 ?
O1 Zn1 O1 88.129(18) 2_665 4_565 ?
O1 Zn1 O1 88.129(18) . 4_565 ?
O1 Zn1 O1 159.18(10) 3_655 4_565 ?
O1 Zn1 N1 100.41(5) 2_665 . ?
O1 Zn1 N1 100.41(5) . . ?
O1 Zn1 N1 100.41(5) 3_655 . ?
O1 Zn1 N1 100.41(5) 4_565 . ?
O1 Zn1 Zn1 79.59(5) 2_665 17_665 ?
O1 Zn1 Zn1 79.59(5) . 17_665 ?
O1 Zn1 Zn1 79.59(5) 3_655 17_665 ?
O1 Zn1 Zn1 79.59(5) 4_565 17_665 ?
N1 Zn1 Zn1 180.0 . 17_665 ?
C3 C2 C3 119.8(3) . 18 ?
C3 C2 C1 120.05(13) . . ?
C3 C2 C1 120.05(13) 18 . ?
C1 O1 Zn1 126.85(16) . . ?
O1 C1 O1 125.5(3) 18 . ?
O1 C1 C2 117.25(14) 18 . ?
O1 C1 C2 117.25(14) . . ?
C2 C3 C3 120.08(13) . 31_665 ?
C1T N1 C1T 83.1(2) 4_565 2_665 ?
C1T N1 C1T 83.1(2) 4_565 . ?
C1T N1 C1T 139.6(7) 2_665 . ?
C1T N1 C1T 139.6(7) 4_565 3_655 ?
C1T N1 C1T 83.1(2) 2_665 3_655 ?
C1T N1 C1T 83.1(2) . 3_655 ?
C1T N1 C2T 44.9(9) 4_565 4_565 ?
C1T N1 C2T 121.4(7) 2_665 4_565 ?
C1T N1 C2T 38.9(8) . 4_565 ?
C1T N1 C2T 116.8(8) 3_655 4_565 ?
C1T N1 C2T 116.8(8) 4_565 3_655 ?
C1T N1 C2T 38.9(8) 2_665 3_655 ?
C1T N1 C2T 121.4(7) . 3_655 ?
C1T N1 C2T 44.9(9) 3_655 3_655 ?
C2T N1 C2T 136.2(7) 4_565 3_655 ?
C1T N1 C2T 38.9(8) 4_565 2_665 ?
C1T N1 C2T 44.9(9) 2_665 2_665 ?
C1T N1 C2T 116.8(8) . 2_665 ?
C1T N1 C2T 121.4(7) 3_655 2_665 ?
C2T N1 C2T 82.0(3) 4_565 2_665 ?
C2T N1 C2T 82.0(3) 3_655 2_665 ?
C1T N1 C2T 121.4(7) 4_565 . ?
C1T N1 C2T 116.8(8) 2_665 . ?
C1T N1 C2T 44.9(9) . . ?
C1T N1 C2T 38.9(8) 3_655 . ?
C2T N1 C2T 82.0(3) 4_565 . ?
C2T N1 C2T 82.0(3) 3_655 . ?
C2T N1 C2T 136.2(7) 2_665 . ?
C1T N1 Zn1 110.2(3) 4_565 . ?
C1T N1 Zn1 110.2(3) 2_665 . ?
C1T N1 Zn1 110.2(3) . . ?
C1T N1 Zn1 110.2(3) 3_655 . ?
C2T N1 Zn1 111.9(4) 4_565 . ?
C2T N1 Zn1 111.9(4) 3_655 . ?
C2T N1 Zn1 111.9(4) 2_665 . ?
C2T N1 Zn1 111.9(4) . . ?
N1 C1T C1T 104.4(15) . 7 ?
N1 C1T C1T 48.43(11) . 4_565 ?
C1T C1T C1T 73(3) 7 4_565 ?
N1 C1T C1T 48.43(11) . 3_655 ?
C1T C1T C1T 100.8(8) 7 3_655 ?
C1T C1T C1T 90.000(5) 4_565 3_655 ?
N1 C2T C2T 102(2) . 5_655 ?
N1 C2T C2T 49.00(13) . 4_565 ?
C2T C2T C2T 67(3) 5_655 4_565 ?
N1 C2T C2T 49.00(13) . 3_655 ?
C2T C2T C2T 102.5(5) 5_655 3_655 ?
C2T C2T C2T 90.000(3) 4_565 3_655 ?
N1 C2T C2T 89(2) . 8_665 ?
C2T C2T C2T 62.4(11) 5_655 8_665 ?
C2T C2T C2T 100.6(10) 4_565 8_665 ?
C2T C2T C2T 51(2) 3_655 8_665 ?
C1D N1D C2D 120.4(6) . . ?
C1D N1D C2D 120.4(6) . 31 ?
C2D N1D C2D 116.7(13) . 31 ?
N1D C1D O1D 111.2(10) . . ?

_diffrn_measured_fraction_theta_max 0.980
_diffrn_reflns_theta_full        28.27
_diffrn_measured_fraction_theta_full 0.980
_refine_diff_density_max         0.474
_refine_diff_density_min         -0.561
_refine_diff_density_rms         0.085
